c Sudoku solution
p cnf 729 0
119 0
145 0
198 0
213 0
254 0
279 0
282 0
326 0
338 0
363 0
385 0
449 0
359 0
456 0
481 0
567 0
594 0
637 0
644 0
653 0
676 0
692 0
717 0
743 0
769 0
888 0
689 0
583 0
173 0
925 0
235 0
941 0
834 0
964 0
432 0
423 0
414 0
124 0
227 0
374 0
722 0
918 0
758 0
312 0
131 0
261 0
248 0
166 0
152 0
347 0
187 0
296 0
391 0
933 0
829 0
893 0
999 0
986 0
784 0
736 0
811 0
615 0
516 0
539 0
846 0
542 0
551 0
668 0
465 0
497 0
575 0
478 0
528 0
621 0
957 0
862 0
855 0
972 0
877 0
771 0
795 0
